
%FILE DATA:	Soccer Computational Problem for MiniZinc Models	%
%AUTHOR:	Jack Wall	%
%CONTACT:  	116397063@umail.ucc.ie			%
%LAST UPDATE:	02/14/2020, 08:50:14						%
%DESCRIPTION: 	48 games played with 8 games left				%


n=8; %number of teams

%Games to play
games=[|7,1|4,8|3,1|7,6|2,4|6,4|1,3|2,7|];

%Initial points
iPoints=[15,17,20,11,11,17,21,16];

%POSITION CONSTRAINTS
% [|teamID, operator, position|...]
% operators index:
%  1 for =  operator
%  2 for >  operator
%  3 for >= operator
%  4 for <  operator
%  5 for <= operator
positionConstraints=[|7,3,1|6,2,1|3,5,3|];